certificates/rado_a11_c173_N25.cnf
c Rad2 upper bound instance: x1 + 11*x2 - x3 = 173, interval [1,25]
p cnf 25 112
1 4 16 0
-1 -4 -16 0
1 15 17 0
-1 -15 -17 0
2 5 16 0
-2 -5 -16 0
2 16 17 0
-2 -16 -17 0
3 6 16 0
-3 -6 -16 0
3 17 0
-3 -17 0
4 7 16 0
-4 -7 -16 0
4 17 18 0
-4 -17 -18 0
5 8 16 0
-5 -8 -16 0
5 17 19 0
-5 -17 -19 0
6 9 16 0
-6 -9 -16 0
6 17 20 0
-6 -17 -20 0
7 10 16 0
-7 -10 -16 0
7 17 21 0
-7 -17 -21 0
8 11 16 0
-8 -11 -16 0
8 17 22 0
-8 -17 -22 0
1 9 15 0
-1 -9 -15 0
9 12 16 0
-9 -12 -16 0
9 17 23 0
-9 -17 -23 0
2 10 15 0
-2 -10 -15 0
10 13 16 0
-10 -13 -16 0
10 17 24 0
-10 -17 -24 0
3 11 15 0
-3 -11 -15 0
11 14 16 0
-11 -14 -16 0
11 17 25 0
-11 -17 -25 0
4 12 15 0
-4 -12 -15 0
12 15 16 0
-12 -15 -16 0
5 13 15 0
-5 -13 -15 0
13 16 0
-13 -16 0
6 14 15 0
-6 -14 -15 0
14 16 17 0
-14 -16 -17 0
7 15 0
-7 -15 0
15 16 18 0
-15 -16 -18 0
8 15 16 0
-8 -15 -16 0
16 19 0
-16 -19 0
9 15 17 0
-9 -15 -17 0
16 17 20 0
-16 -17 -20 0
10 15 18 0
-10 -15 -18 0
16 18 21 0
-16 -18 -21 0
11 15 19 0
-11 -15 -19 0
16 19 22 0
-16 -19 -22 0
1 14 20 0
-1 -14 -20 0
12 15 20 0
-12 -15 -20 0
16 20 23 0
-16 -20 -23 0
2 14 21 0
-2 -14 -21 0
13 15 21 0
-13 -15 -21 0
16 21 24 0
-16 -21 -24 0
3 14 22 0
-3 -14 -22 0
14 15 22 0
-14 -15 -22 0
16 22 25 0
-16 -22 -25 0
4 14 23 0
-4 -14 -23 0
15 23 0
-15 -23 0
5 14 24 0
-5 -14 -24 0
15 16 24 0
-15 -16 -24 0
6 14 25 0
-6 -14 -25 0
15 17 25 0
-15 -17 -25 0
