certificates/rado_a11_c173_N25.drat
-22 15 -25 0
-23 -24 -25 0
-24 -25 0
d -23 -24 -25 0
-15 -25 0
-25 0
15 0
-7 0
-23 0
16 -17 0
-17 0
3 0
11 0
9 0
21 0
0
